4	143	143	0	16	16
5	144	103	0	0	0
6	236	184	0	16	16
7	279	240	0	15	15
8	267	244	0	15	15
9	261	225	0	31	31
10	385	247	0	15	15
11	438	308	0	187	187
12	377	341	0	15	15
13	541	335	0	32	32
14	551	384	0	31	31
15	675	372	0	47	47
16	560	413	0	31	31
17	656	426	0	93	93
18	634	434	0	203	203
19	875	478	0	93	93
